60
1 0 24
2 0 10
2 1 7
3 0 21
3 1 7
3 2 5
4 0 26
4 1 31
4 2 23
4 3 23
5 0 28
5 1 7
5 2 38
5 3 30
5 4 12
6 0 8
6 1 5
6 2 34
6 3 12
6 4 36
6 5 1
7 0 38
7 1 33
7 2 17
7 3 10
7 4 21
7 5 21
7 6 31
8 0 35
8 1 36
8 2 36
8 3 39
8 4 37
8 5 5
8 6 27
8 7 14
9 0 13
9 1 36
9 2 5
9 3 37
9 4 32
9 5 34
9 6 39
9 7 31
9 8 33
10 0 38
10 1 27
10 2 39
10 3 18
10 4 40
10 5 1
10 6 20
10 7 9
10 8 23
10 9 37
11 0 9
11 1 23
11 2 28
11 3 29
11 4 33
11 5 4
11 6 8
11 7 19
11 8 10
11 9 27
11 10 22
12 0 18
12 1 1
12 2 26
12 3 23
12 4 5
12 5 31
12 6 2
12 7 19
12 8 34
12 9 14
12 10 33
12 11 32
13 0 40
13 1 27
13 2 33
13 3 21
13 4 33
13 5 17
13 6 19
13 7 15
13 8 39
13 9 23
13 10 18
13 11 37
13 12 39
14 0 33
14 1 21
14 2 2
14 3 3
14 4 26
14 5 19
14 6 2
14 7 21
14 8 34
14 9 37
14 10 15
14 11 5
14 12 13
14 13 13
15 0 23
15 1 20
15 2 17
15 3 7
15 4 9
15 5 18
15 6 35
15 7 33
15 8 28
15 9 16
15 10 14
15 11 5
15 12 7
15 13 34
15 14 39
16 0 19
16 1 15
16 2 10
16 3 26
16 4 20
16 5 20
16 6 24
16 7 18
16 8 15
16 9 29
16 10 39
16 11 8
16 12 39
16 13 11
16 14 26
16 15 18
17 0 7
17 1 21
17 2 13
17 3 19
17 4 18
17 5 3
17 6 38
17 7 12
17 8 21
17 9 24
17 10 38
17 11 26
17 12 12
17 13 30
17 14 38
17 15 23
17 16 23
18 0 27
18 1 7
18 2 27
18 3 33
18 4 30
18 5 8
18 6 30
18 7 36
18 8 31
18 9 35
18 10 34
18 11 11
18 12 20
18 13 8
18 14 13
18 15 19
18 16 12
18 17 38
19 0 12
19 1 19
19 2 20
19 3 4
19 4 13
19 5 15
19 6 25
19 7 4
19 8 37
19 9 37
19 10 15
19 11 2
19 12 15
19 13 6
19 14 11
19 15 3
19 16 17
19 17 16
19 18 21
20 0 8
20 1 40
20 2 36
20 3 32
20 4 4
20 5 21
20 6 4
20 7 36
20 8 3
20 9 30
20 10 21
20 11 37
20 12 3
20 13 14
20 14 12
20 15 14
20 16 4
20 17 15
20 18 5
20 19 28
21 0 31
21 1 13
21 2 22
21 3 2
21 4 11
21 5 33
21 6 30
21 7 37
21 8 30
21 9 31
21 10 12
21 11 17
21 12 34
21 13 16
21 14 21
21 15 10
21 16 13
21 17 6
21 18 12
21 19 13
21 20 15
22 0 25
22 1 31
22 2 36
22 3 16
22 4 12
22 5 1
22 6 25
22 7 24
22 8 10
22 9 29
22 10 36
22 11 5
22 12 39
22 13 11
22 14 2
22 15 36
22 16 6
22 17 9
22 18 37
22 19 20
22 20 16
22 21 28
23 0 16
23 1 18
23 2 11
23 3 40
23 4 34
23 5 37
23 6 16
23 7 9
23 8 1
23 9 33
23 10 12
23 11 32
23 12 22
23 13 20
23 14 12
23 15 31
23 16 33
23 17 26
23 18 23
23 19 8
23 20 27
23 21 16
23 22 15
24 0 29
24 1 11
24 2 14
24 3 29
24 4 18
24 5 29
24 6 38
24 7 13
24 8 24
24 9 6
24 10 2
24 11 18
24 12 27
24 13 38
24 14 33
24 15 1
24 16 26
24 17 6
24 18 32
24 19 3
24 20 10
24 21 18
24 22 33
24 23 18
25 0 21
25 1 16
25 2 26
25 3 11
25 4 26
25 5 14
25 6 39
25 7 34
25 8 33
25 9 27
25 10 3
25 11 21
25 12 10
25 13 7
25 14 2
25 15 3
25 16 39
25 17 18
25 18 21
25 19 28
25 20 31
25 21 38
25 22 18
25 23 8
25 24 29
26 0 2
26 1 3
26 2 19
26 3 27
26 4 34
26 5 19
26 6 6
26 7 4
26 8 6
26 9 4
26 10 36
26 11 40
26 12 23
26 13 3
26 14 35
26 15 33
26 16 23
26 17 19
26 18 22
26 19 16
26 20 40
26 21 34
26 22 14
26 23 18
26 24 28
26 25 16
27 0 8
27 1 20
27 2 31
27 3 25
27 4 4
27 5 32
27 6 28
27 7 33
27 8 32
27 9 21
27 10 4
27 11 9
27 12 27
27 13 40
27 14 23
27 15 29
27 16 40
27 17 4
27 18 25
27 19 32
27 20 24
27 21 7
27 22 10
27 23 30
27 24 8
27 25 18
27 26 10
28 0 21
28 1 9
28 2 15
28 3 8
28 4 28
28 5 33
28 6 31
28 7 6
28 8 19
28 9 5
28 10 12
28 11 6
28 12 21
28 13 16
28 14 38
28 15 40
28 16 14
28 17 13
28 18 15
28 19 15
28 20 8
28 21 27
28 22 19
28 23 33
28 24 2
28 25 4
28 26 15
28 27 5
29 0 35
29 1 27
29 2 27
29 3 22
29 4 6
29 5 27
29 6 27
29 7 23
29 8 39
29 9 27
29 10 8
29 11 7
29 12 13
29 13 18
29 14 34
29 15 36
29 16 35
29 17 6
29 18 31
29 19 7
29 20 21
29 21 2
29 22 35
29 23 32
29 24 6
29 25 33
29 26 11
29 27 1
29 28 13
30 0 37
30 1 39
30 2 14
30 3 17
30 4 15
30 5 37
30 6 30
30 7 32
30 8 37
30 9 28
30 10 12
30 11 7
30 12 13
30 13 39
30 14 22
30 15 25
30 16 14
30 17 34
30 18 12
30 19 25
30 20 35
30 21 16
30 22 27
30 23 35
30 24 29
30 25 23
30 26 2
30 27 39
30 28 26
30 29 9
31 0 39
31 1 30
31 2 17
31 3 15
31 4 6
31 5 25
31 6 13
31 7 25
31 8 3
31 9 11
31 10 36
31 11 10
31 12 38
31 13 18
31 14 16
31 15 31
31 16 5
31 17 35
31 18 23
31 19 28
31 20 2
31 21 23
31 22 27
31 23 28
31 24 4
31 25 25
31 26 25
31 27 37
31 28 28
31 29 36
31 30 40
32 0 19
32 1 28
32 2 34
32 3 7
32 4 33
32 5 7
32 6 2
32 7 26
32 8 22
32 9 28
32 10 4
32 11 22
32 12 15
32 13 27
32 14 8
32 15 36
32 16 30
32 17 10
32 18 16
32 19 35
32 20 20
32 21 16
32 22 17
32 23 18
32 24 37
32 25 11
32 26 11
32 27 32
32 28 22
32 29 5
32 30 29
32 31 34
33 0 21
33 1 36
33 2 24
33 3 16
33 4 11
33 5 39
33 6 29
33 7 32
33 8 36
33 9 3
33 10 14
33 11 14
33 12 11
33 13 26
33 14 37
33 15 24
33 16 10
33 17 4
33 18 20
33 19 13
33 20 40
33 21 30
33 22 26
33 23 7
33 24 23
33 25 18
33 26 14
33 27 20
33 28 11
33 29 34
33 30 33
33 31 25
33 32 7
34 0 19
34 1 9
34 2 15
34 3 13
34 4 16
34 5 36
34 6 7
34 7 1
34 8 18
34 9 29
34 10 28
34 11 14
34 12 16
34 13 3
34 14 17
34 15 37
34 16 11
34 17 4
34 18 29
34 19 24
34 20 1
34 21 23
34 22 16
34 23 17
34 24 33
34 25 12
34 26 23
34 27 39
34 28 1
34 29 40
34 30 27
34 31 14
34 32 31
34 33 6
35 0 32
35 1 3
35 2 39
35 3 2
35 4 13
35 5 19
35 6 3
35 7 10
35 8 9
35 9 37
35 10 9
35 11 3
35 12 39
35 13 21
35 14 1
35 15 33
35 16 2
35 17 6
35 18 39
35 19 1
35 20 25
35 21 9
35 22 35
35 23 20
35 24 34
35 25 18
35 26 31
35 27 19
35 28 26
35 29 3
35 30 1
35 31 37
35 32 9
35 33 3
35 34 14
36 0 29
36 1 22
36 2 34
36 3 31
36 4 12
36 5 13
36 6 12
36 7 29
36 8 4
36 9 33
36 10 32
36 11 31
36 12 34
36 13 31
36 14 33
36 15 27
36 16 18
36 17 28
36 18 34
36 19 36
36 20 3
36 21 22
36 22 16
36 23 25
36 24 26
36 25 35
36 26 14
36 27 36
36 28 3
36 29 19
36 30 8
36 31 25
36 32 17
36 33 4
36 34 26
36 35 13
37 0 20
37 1 19
37 2 21
37 3 39
37 4 3
37 5 38
37 6 17
37 7 17
37 8 32
37 9 16
37 10 8
37 11 37
37 12 28
37 13 11
37 14 1
37 15 10
37 16 34
37 17 32
37 18 12
37 19 36
37 20 7
37 21 34
37 22 1
37 23 28
37 24 40
37 25 2
37 26 25
37 27 34
37 28 24
37 29 33
37 30 11
37 31 32
37 32 24
37 33 27
37 34 17
37 35 5
37 36 23
38 0 6
38 1 40
38 2 33
38 3 25
38 4 32
38 5 39
38 6 25
38 7 1
38 8 4
38 9 11
38 10 33
38 11 9
38 12 33
38 13 11
38 14 7
38 15 31
38 16 22
38 17 33
38 18 38
38 19 1
38 20 20
38 21 25
38 22 15
38 23 19
38 24 12
38 25 37
38 26 2
38 27 15
38 28 33
38 29 19
38 30 31
38 31 26
38 32 19
38 33 30
38 34 8
38 35 26
38 36 22
38 37 1
39 0 7
39 1 36
39 2 23
39 3 35
39 4 19
39 5 4
39 6 24
39 7 2
39 8 25
39 9 4
39 10 36
39 11 3
39 12 26
39 13 3
39 14 35
39 15 22
39 16 13
39 17 1
39 18 21
39 19 17
39 20 2
39 21 23
39 22 8
39 23 25
39 24 12
39 25 34
39 26 22
39 27 26
39 28 21
39 29 10
39 30 20
39 31 7
39 32 38
39 33 38
39 34 1
39 35 29
39 36 18
39 37 33
39 38 40
40 0 35
40 1 18
40 2 30
40 3 6
40 4 31
40 5 32
40 6 33
40 7 4
40 8 30
40 9 35
40 10 33
40 11 4
40 12 8
40 13 14
40 14 33
40 15 32
40 16 13
40 17 12
40 18 1
40 19 4
40 20 7
40 21 35
40 22 39
40 23 40
40 24 9
40 25 25
40 26 37
40 27 8
40 28 10
40 29 27
40 30 38
40 31 19
40 32 13
40 33 11
40 34 4
40 35 12
40 36 16
40 37 29
40 38 15
40 39 14
41 0 17
41 1 31
41 2 38
41 3 29
41 4 7
41 5 17
41 6 19
41 7 29
41 8 13
41 9 1
41 10 12
41 11 10
41 12 12
41 13 39
41 14 13
41 15 19
41 16 31
41 17 24
41 18 20
41 19 25
41 20 13
41 21 13
41 22 15
41 23 8
41 24 14
41 25 24
41 26 9
41 27 18
41 28 34
41 29 23
41 30 13
41 31 24
41 32 21
41 33 29
41 34 37
41 35 24
41 36 25
41 37 6
41 38 22
41 39 28
41 40 28
42 0 33
42 1 38
42 2 40
42 3 13
42 4 18
42 5 29
42 6 28
42 7 5
42 8 18
42 9 10
42 10 2
42 11 7
42 12 2
42 13 2
42 14 29
42 15 3
42 16 5
42 17 33
42 18 14
42 19 16
42 20 24
42 21 26
42 22 33
42 23 31
42 24 31
42 25 24
42 26 34
42 27 9
42 28 7
42 29 27
42 30 13
42 31 26
42 32 17
42 33 12
42 34 23
42 35 35
42 36 13
42 37 14
42 38 12
42 39 12
42 40 11
42 41 23
43 0 33
43 1 11
43 2 22
43 3 37
43 4 5
43 5 29
43 6 11
43 7 5
43 8 25
43 9 18
43 10 27
43 11 21
43 12 22
43 13 15
43 14 28
43 15 5
43 16 36
43 17 28
43 18 12
43 19 37
43 20 24
43 21 17
43 22 16
43 23 27
43 24 36
43 25 29
43 26 15
43 27 6
43 28 1
43 29 32
43 30 6
43 31 21
43 32 11
43 33 10
43 34 37
43 35 37
43 36 26
43 37 24
43 38 17
43 39 29
43 40 11
43 41 24
43 42 26
44 0 13
44 1 10
44 2 5
44 3 17
44 4 28
44 5 36
44 6 2
44 7 39
44 8 32
44 9 13
44 10 10
44 11 27
44 12 10
44 13 39
44 14 31
44 15 25
44 16 25
44 17 14
44 18 24
44 19 21
44 20 31
44 21 8
44 22 32
44 23 39
44 24 34
44 25 39
44 26 36
44 27 20
44 28 25
44 29 5
44 30 21
44 31 31
44 32 18
44 33 27
44 34 8
44 35 21
44 36 28
44 37 3
44 38 8
44 39 22
44 40 2
44 41 17
44 42 12
44 43 29
45 0 40
45 1 9
45 2 35
45 3 27
45 4 34
45 5 29
45 6 2
45 7 24
45 8 19
45 9 7
45 10 24
45 11 31
45 12 8
45 13 25
45 14 25
45 15 12
45 16 39
45 17 4
45 18 32
45 19 2
45 20 13
45 21 12
45 22 1
45 23 17
45 24 14
45 25 11
45 26 40
45 27 34
45 28 26
45 29 16
45 30 19
45 31 9
45 32 22
45 33 39
45 34 33
45 35 3
45 36 11
45 37 1
45 38 29
45 39 29
45 40 11
45 41 4
45 42 7
45 43 39
45 44 5
46 0 19
46 1 23
46 2 33
46 3 7
46 4 32
46 5 34
46 6 30
46 7 9
46 8 32
46 9 15
46 10 2
46 11 32
46 12 8
46 13 7
46 14 19
46 15 28
46 16 32
46 17 16
46 18 8
46 19 8
46 20 35
46 21 7
46 22 33
46 23 29
46 24 39
46 25 16
46 26 37
46 27 2
46 28 15
46 29 35
46 30 9
46 31 14
46 32 2
46 33 7
46 34 34
46 35 23
46 36 30
46 37 35
46 38 28
46 39 9
46 40 12
46 41 40
46 42 2
46 43 40
46 44 37
46 45 5
47 0 9
47 1 12
47 2 20
47 3 10
47 4 27
47 5 28
47 6 9
47 7 10
47 8 30
47 9 11
47 10 21
47 11 38
47 12 3
47 13 39
47 14 23
47 15 29
47 16 23
47 17 2
47 18 39
47 19 16
47 20 8
47 21 22
47 22 35
47 23 30
47 24 31
47 25 3
47 26 38
47 27 31
47 28 10
47 29 20
47 30 11
47 31 39
47 32 22
47 33 17
47 34 8
47 35 30
47 36 37
47 37 7
47 38 18
47 39 38
47 40 34
47 41 4
47 42 14
47 43 7
47 44 23
47 45 12
47 46 25
48 0 14
48 1 39
48 2 33
48 3 14
48 4 28
48 5 6
48 6 10
48 7 37
48 8 37
48 9 10
48 10 5
48 11 8
48 12 20
48 13 4
48 14 21
48 15 9
48 16 14
48 17 36
48 18 38
48 19 32
48 20 3
48 21 35
48 22 4
48 23 18
48 24 29
48 25 31
48 26 18
48 27 3
48 28 32
48 29 22
48 30 14
48 31 16
48 32 34
48 33 20
48 34 20
48 35 9
48 36 34
48 37 39
48 38 28
48 39 34
48 40 12
48 41 10
48 42 10
48 43 12
48 44 32
48 45 3
48 46 29
48 47 12
49 0 14
49 1 6
49 2 16
49 3 34
49 4 26
49 5 26
49 6 8
49 7 3
49 8 18
49 9 9
49 10 20
49 11 35
49 12 14
49 13 15
49 14 16
49 15 39
49 16 31
49 17 36
49 18 3
49 19 39
49 20 37
49 21 7
49 22 21
49 23 9
49 24 8
49 25 5
49 26 30
49 27 26
49 28 2
49 29 40
49 30 8
49 31 40
49 32 16
49 33 1
49 34 2
49 35 34
49 36 6
49 37 33
49 38 11
49 39 19
49 40 14
49 41 13
49 42 16
49 43 30
49 44 3
49 45 39
49 46 23
49 47 5
49 48 39
50 0 39
50 1 29
50 2 25
50 3 9
50 4 1
50 5 37
50 6 25
50 7 9
50 8 34
50 9 7
50 10 8
50 11 12
50 12 23
50 13 13
50 14 9
50 15 9
50 16 20
50 17 24
50 18 30
50 19 15
50 20 36
50 21 7
50 22 21
50 23 34
50 24 40
50 25 37
50 26 38
50 27 30
50 28 16
50 29 29
50 30 27
50 31 20
50 32 39
50 33 20
50 34 17
50 35 2
50 36 35
50 37 25
50 38 3
50 39 7
50 40 19
50 41 15
50 42 37
50 43 5
50 44 28
50 45 28
50 46 25
50 47 29
50 48 7
50 49 10
51 0 16
51 1 8
51 2 28
51 3 28
51 4 9
51 5 24
51 6 20
51 7 24
51 8 20
51 9 30
51 10 40
51 11 17
51 12 37
51 13 23
51 14 40
51 15 18
51 16 3
51 17 31
51 18 24
51 19 30
51 20 17
51 21 37
51 22 20
51 23 12
51 24 6
51 25 25
51 26 35
51 27 2
51 28 1
51 29 36
51 30 29
51 31 24
51 32 31
51 33 16
51 34 32
51 35 20
51 36 5
51 37 11
51 38 28
51 39 22
51 40 16
51 41 34
51 42 3
51 43 31
51 44 6
51 45 17
51 46 15
51 47 16
51 48 10
51 49 23
51 50 3
52 0 27
52 1 30
52 2 18
52 3 10
52 4 36
52 5 40
52 6 8
52 7 29
52 8 4
52 9 35
52 10 27
52 11 11
52 12 17
52 13 22
52 14 26
52 15 35
52 16 37
52 17 29
52 18 19
52 19 20
52 20 15
52 21 10
52 22 4
52 23 2
52 24 14
52 25 32
52 26 8
52 27 4
52 28 36
52 29 39
52 30 21
52 31 18
52 32 40
52 33 33
52 34 21
52 35 15
52 36 5
52 37 32
52 38 25
52 39 7
52 40 21
52 41 24
52 42 38
52 43 33
52 44 31
52 45 18
52 46 12
52 47 9
52 48 3
52 49 34
52 50 30
52 51 12
53 0 2
53 1 19
53 2 35
53 3 5
53 4 7
53 5 5
53 6 38
53 7 11
53 8 4
53 9 1
53 10 14
53 11 25
53 12 18
53 13 17
53 14 33
53 15 5
53 16 30
53 17 19
53 18 30
53 19 6
53 20 33
53 21 1
53 22 14
53 23 26
53 24 26
53 25 27
53 26 19
53 27 39
53 28 20
53 29 5
53 30 14
53 31 16
53 32 34
53 33 33
53 34 25
53 35 17
53 36 18
53 37 16
53 38 18
53 39 19
53 40 29
53 41 13
53 42 17
53 43 28
53 44 30
53 45 32
53 46 29
53 47 36
53 48 12
53 49 39
53 50 24
53 51 29
53 52 11
54 0 33
54 1 10
54 2 28
54 3 6
54 4 8
54 5 30
54 6 29
54 7 13
54 8 10
54 9 9
54 10 15
54 11 11
54 12 31
54 13 33
54 14 25
54 15 28
54 16 20
54 17 4
54 18 4
54 19 34
54 20 14
54 21 26
54 22 11
54 23 22
54 24 2
54 25 11
54 26 22
54 27 40
54 28 26
54 29 7
54 30 28
54 31 30
54 32 34
54 33 26
54 34 39
54 35 8
54 36 16
54 37 11
54 38 30
54 39 39
54 40 24
54 41 39
54 42 17
54 43 39
54 44 37
54 45 40
54 46 8
54 47 18
54 48 6
54 49 38
54 50 37
54 51 40
54 52 24
54 53 12
55 0 39
55 1 14
55 2 23
55 3 40
55 4 32
55 5 22
55 6 26
55 7 15
55 8 34
55 9 29
55 10 23
55 11 1
55 12 3
55 13 21
55 14 8
55 15 21
55 16 22
55 17 8
55 18 19
55 19 24
55 20 37
55 21 22
55 22 16
55 23 18
55 24 37
55 25 12
55 26 17
55 27 17
55 28 15
55 29 35
55 30 35
55 31 1
55 32 29
55 33 15
55 34 18
55 35 38
55 36 27
55 37 10
55 38 17
55 39 38
55 40 22
55 41 4
55 42 22
55 43 11
55 44 14
55 45 22
55 46 26
55 47 12
55 48 7
55 49 37
55 50 21
55 51 24
55 52 28
55 53 23
55 54 9
56 0 9
56 1 11
56 2 29
56 3 5
56 4 16
56 5 38
56 6 14
56 7 34
56 8 30
56 9 13
56 10 18
56 11 33
56 12 18
56 13 39
56 14 26
56 15 40
56 16 12
56 17 38
56 18 8
56 19 28
56 20 28
56 21 24
56 22 13
56 23 14
56 24 22
56 25 27
56 26 8
56 27 10
56 28 28
56 29 21
56 30 18
56 31 31
56 32 6
56 33 30
56 34 2
56 35 9
56 36 40
56 37 28
56 38 13
56 39 12
56 40 20
56 41 25
56 42 40
56 43 13
56 44 7
56 45 20
56 46 28
56 47 18
56 48 19
56 49 21
56 50 22
56 51 33
56 52 31
56 53 9
56 54 16
56 55 28
57 0 15
57 1 17
57 2 40
57 3 12
57 4 36
57 5 16
57 6 11
57 7 9
57 8 21
57 9 15
57 10 12
57 11 9
57 12 22
57 13 23
57 14 30
57 15 26
57 16 14
57 17 8
57 18 36
57 19 20
57 20 35
57 21 25
57 22 19
57 23 12
57 24 5
57 25 18
57 26 37
57 27 39
57 28 6
57 29 32
57 30 30
57 31 18
57 32 33
57 33 26
57 34 11
57 35 38
57 36 10
57 37 7
57 38 35
57 39 33
57 40 7
57 41 2
57 42 6
57 43 22
57 44 19
57 45 34
57 46 14
57 47 12
57 48 15
57 49 22
57 50 14
57 51 8
57 52 19
57 53 27
57 54 7
57 55 38
57 56 8
58 0 39
58 1 5
58 2 34
58 3 18
58 4 16
58 5 26
58 6 1
58 7 38
58 8 32
58 9 31
58 10 18
58 11 37
58 12 28
58 13 22
58 14 16
58 15 12
58 16 1
58 17 33
58 18 40
58 19 8
58 20 22
58 21 28
58 22 4
58 23 19
58 24 24
58 25 35
58 26 38
58 27 30
58 28 10
58 29 40
58 30 2
58 31 5
58 32 36
58 33 40
58 34 9
58 35 15
58 36 2
58 37 26
58 38 40
58 39 21
58 40 35
58 41 39
58 42 20
58 43 37
58 44 18
58 45 4
58 46 32
58 47 17
58 48 8
58 49 40
58 50 6
58 51 2
58 52 30
58 53 2
58 54 27
58 55 14
58 56 2
58 57 5
59 0 17
59 1 20
59 2 27
59 3 1
59 4 35
59 5 21
59 6 35
59 7 10
59 8 12
59 9 17
59 10 5
59 11 17
59 12 17
59 13 4
59 14 36
59 15 38
59 16 24
59 17 7
59 18 31
59 19 27
59 20 6
59 21 10
59 22 25
59 23 26
59 24 30
59 25 7
59 26 7
59 27 7
59 28 35
59 29 15
59 30 34
59 31 33
59 32 33
59 33 8
59 34 20
59 35 8
59 36 33
59 37 5
59 38 35
59 39 17
59 40 7
59 41 34
59 42 27
59 43 26
59 44 12
59 45 35
59 46 13
59 47 13
59 48 18
59 49 13
59 50 16
59 51 29
59 52 16
59 53 24
59 54 33
59 55 3
59 56 3
59 57 19
59 58 17
